4 
5  08 30 46 
6  00 09 14 19 24 30 34 40 44 49 54 59 
7  04 09 15 19 25 29 34 39 44 49 54 59 
8  04 09 14 19 24 29 34 39 44 49 54 59 
9  04 09 17 24 32 39 47 55 
10  03 10 18 27 34 42 49 57 
11  04 12 19 27 34 42 49 57 
12  04 12 19 27 34 42 49 57 
13  04 12 19 27 34 42 49 57 
14  04 12 19 27 34 43 50 55 
15  00 05 10 15 19 25 30 34 40 45 49 55 
16  00 04 10 15 19 25 30 34 40 45 49 55 
17  00 04 10 15 19 25 30 34 40 45 49 55 
18  00 04 10 15 19 25 30 34 40 45 49 55 
19  00 09 14 21 28 36 44 51 
20  00 09 18 26 33 40 48 56 
21  03 11 18 26 33 41 48 
22  00 15 30 45 
23  00 15 30 
0 
